slay04h.py
Ipopt 3.12.8: 
==> Warning: Treating 24 binary and 0 integer variables as continous.


******************************************************************************
This program contains Ipopt, a library for large-scale nonlinear optimization.
 Ipopt is released as open source code under the Eclipse Public License (EPL).
         For more information visit http://projects.coin-or.org/Ipopt
******************************************************************************

This is Ipopt version 3.12.8, running with linear solver ma27.

Number of nonzeros in equality constraint Jacobian...:      144
Number of nonzeros in inequality constraint Jacobian.:      336
Number of nonzeros in Lagrangian Hessian.............:        8

Total number of variables............................:      140
                     variables with only lower bounds:      108
                variables with lower and upper bounds:       32
                     variables with only upper bounds:        0
Total number of equality constraints.................:       30
Total number of inequality constraints...............:      144
        inequality constraints with only lower bounds:       24
   inequality constraints with lower and upper bounds:        0
        inequality constraints with only upper bounds:      120

iter    objective    inf_pr   inf_du lg(mu)  ||d||  lg(rg) alpha_du alpha_pr  ls
   0  1.0572848e+05 3.50e+00 2.15e+01  -1.0 0.00e+00    -  0.00e+00 0.00e+00   0
   1  1.0596935e+05 3.42e+00 2.09e+01  -1.0 6.74e+00    -  1.05e-02 2.10e-02f  1
   2  1.0506284e+05 3.22e+00 2.16e+01  -1.0 6.37e+00    -  1.55e-02 5.90e-02f  1
   3  1.0225840e+05 3.01e+00 2.10e+01  -1.0 5.82e+00    -  1.67e-02 6.41e-02f  1
   4  8.4725626e+04 2.50e+00 1.80e+01  -1.0 7.06e+00    -  2.08e-02 1.71e-01f  1
   5  6.7036978e+04 2.13e+00 1.54e+01  -1.0 7.84e+00    -  6.65e-02 1.45e-01f  1
   6  1.3943414e+04 4.32e-01 3.22e+00  -1.0 7.76e+00    -  9.74e-02 7.98e-01f  1
   7  9.4142871e+03 1.33e-15 1.74e+00  -1.0 5.34e+00    -  4.21e-01 1.00e+00f  1
   8  8.8832493e+03 1.55e-15 5.65e-01  -1.0 3.24e+00    -  3.39e-01 1.00e+00f  1
   9  8.7473154e+03 1.33e-15 1.93e-01  -1.0 2.63e+00    -  6.71e-01 1.00e+00f  1
iter    objective    inf_pr   inf_du lg(mu)  ||d||  lg(rg) alpha_du alpha_pr  ls
  10  8.7522901e+03 1.78e-15 1.00e-06  -1.0 1.20e+00    -  1.00e+00 1.00e+00f  1
  11  8.6122449e+03 1.78e-15 1.93e-02  -2.5 3.31e-01    -  1.00e+00 9.35e-01f  1
  12  8.6014720e+03 1.78e-15 1.50e-09  -3.8 1.79e-01    -  1.00e+00 1.00e+00f  1
  13  8.6011437e+03 3.33e-15 1.50e-09  -3.8 1.58e+00    -  1.00e+00 1.00e+00f  1
  14  8.6010882e+03 2.22e-15 1.50e-09  -3.8 9.30e-02    -  1.00e+00 1.00e+00f  1
  15  8.6008780e+03 2.66e-15 1.84e-11  -5.7 1.52e-02    -  1.00e+00 1.00e+00f  1
  16  8.6008779e+03 2.00e-15 1.84e-11  -5.7 2.59e-03    -  1.00e+00 1.00e+00f  1
  17  8.6008754e+03 1.78e-15 2.55e-14  -8.6 1.74e-04    -  1.00e+00 1.00e+00f  1

Number of Iterations....: 17

                                   (scaled)                 (unscaled)
Objective...............:   8.8214106211650062e+01    8.6008753556358806e+03
Dual infeasibility......:   2.5544250417154635e-14    2.4905644156725769e-12
Constraint violation....:   1.7763568394002505e-15    1.7763568394002505e-15
Complementarity.........:   9.7596973161419123e-09    9.5157048832383649e-07
Overall NLP error.......:   9.7596973161419123e-09    9.5157048832383649e-07


Number of objective function evaluations             = 18
Number of objective gradient evaluations             = 18
Number of equality constraint evaluations            = 18
Number of inequality constraint evaluations          = 18
Number of equality constraint Jacobian evaluations   = 18
Number of inequality constraint Jacobian evaluations = 18
Number of Lagrangian Hessian evaluations             = 17
Total CPU secs in IPOPT (w/o function evaluations)   =      0.008
Total CPU secs in NLP function evaluations           =      0.000

EXIT: Optimal Solution Found.

Time elapsed: 0.141055822372